1161.0 13351.0 3146.0 
1239.0 13481.0 2771.0 
1161.0 13467.0 2905.0 
1141.0 13431.0 3130.0 
1247.0 13479.0 2769.0 
1239.0 13481.0 2771.0 
1173.0 13554.0 2901.0 
1184.0 13247.0 3067.0 
1138.0 13484.0 3037.0 
1198.0 13134.0 2828.0 
1188.0 13403.0 2915.0 
1175.0 13536.0 2875.0 
1190.0 13240.0 3436.0 
1247.0 13347.0 2811.0 
1187.0 13482.0 2799.0 
1188.0 13368.0 2929.0 
1192.0 13305.0 2902.0 
1161.0 13429.0 3096.0 
1183.0 13432.0 3073.0 
1247.0 13366.0 2793.0 
1256.0 13546.0 2762.0 
1165.0 13380.0 3113.0 
1182.0 13413.0 3095.0 
1192.0 13231.0 3011.0 
1176.0 13337.0 3222.0 
1161.0 13316.0 3439.0 
1198.0 13101.0 2887.0 
1243.0 13378.0 2786.0 
